(declare-fun x () Int)
(declare-fun x! () Int)
(declare-fun y () Int)
(declare-fun y! () Int)
(define-fun post-f (( parameter0 Int)( parameter1 Int))
 Bool (and (<= x 1) (>= y (- 3))))
(define-fun inv-f (( parameter0 Int)( parameter1 Int))
 Bool (>= 1 (ite (> 0 (+ parameter1 3)) 2 parameter0)))

(assert (and (inv-f x y)(not (post-f x y))))
(check-sat)
(get-model)
